(set-logic ALL)
(set-option :produce-models true)
(define-fun-rec str.toLower ((x String)) String
  (ite (= x "")
      ""
      (let ((Head (str.at x 0)))
        (str.++ 
          (ite (and (<= 65 (str.to_code Head)) 
                     (<= (str.to_code Head) 90))
               (str.from_code (+ (str.to_code Head) 32))
               Head)
          (str.toLower (str.substr x 1 (- (str.len x) 1)))))))
(declare-fun sym2170 () String)
(assert (<= (str.len sym2170) 1))
(declare-fun sym209 () String)
(assert (<= (str.len sym209) 1))
(declare-fun sym1946 () String)
(assert (<= (str.len sym1946) 1))
(declare-fun sym817 () String)
(assert (<= (str.len sym817) 1))
(declare-fun sym1528 () String)
(assert (<= (str.len sym1528) 1))
(declare-fun sym3228 () String)
(assert (<= (str.len sym3228) 1))
(declare-fun sym3327 () String)
(assert (<= (str.len sym3327) 1))
(declare-fun sym551 () String)
(assert (<= (str.len sym551) 1))
(declare-fun sym2811 () String)
(assert (<= (str.len sym2811) 1))
(declare-fun sym1304 () String)
(assert (<= (str.len sym1304) 1))
(declare-fun sym3006 () String)
(assert (<= (str.len sym3006) 1))
(declare-fun sym1731 () String)
(assert (<= (str.len sym1731) 1))
(declare-fun sym2587 () String)
(assert (<= (str.len sym2587) 1))
(declare-fun sym2365 () String)
(assert (<= (str.len sym2365) 1))
(declare-fun sym1073 () String)
(assert (<= (str.len sym1073) 1))
(declare-fun sym161 () String)
(assert (<= (str.len sym161) 1))
(define-fun Alphabet () RegLan 
	(re.* (re.union (str.to_re "A") (str.to_re "B") (str.to_re "C") (str.to_re "D") (str.to_re "E") (str.to_re "F") (str.to_re "G") (str.to_re "H") (str.to_re "I") (str.to_re "J") (str.to_re "K") (str.to_re "L") (str.to_re "M") (str.to_re "N") (str.to_re "O") (str.to_re "P") (str.to_re "Q") (str.to_re "R") (str.to_re "S") (str.to_re "T") (str.to_re "U") (str.to_re "V") (str.to_re "W") (str.to_re "X") (str.to_re "Y") (str.to_re "Z") (str.to_re "a") (str.to_re "b") (str.to_re "c") (str.to_re "d") (str.to_re "e") (str.to_re "f") (str.to_re "g") (str.to_re "h") (str.to_re "i") (str.to_re "j") (str.to_re "k") (str.to_re "l") (str.to_re "m") (str.to_re "n") (str.to_re "o") (str.to_re "p") (str.to_re "q") (str.to_re "r") (str.to_re "s") (str.to_re "t") (str.to_re "u") (str.to_re "v") (str.to_re "w") (str.to_re "x") (str.to_re "y") (str.to_re "z") ))
)

(assert (str.in_re sym161 Alphabet))
(assert (str.in_re sym1073 Alphabet))
(assert (str.in_re sym2365 Alphabet))
(assert (str.in_re sym2587 Alphabet))
(assert (str.in_re sym1731 Alphabet))
(assert (str.in_re sym3006 Alphabet))
(assert (str.in_re sym1304 Alphabet))
(assert (str.in_re sym2811 Alphabet))
(assert (str.in_re sym551 Alphabet))
(assert (str.in_re sym3327 Alphabet))
(assert (str.in_re sym3228 Alphabet))
(assert (str.in_re sym1528 Alphabet))
(assert (str.in_re sym817 Alphabet))
(assert (str.in_re sym1946 Alphabet))
(assert (str.in_re sym209 Alphabet))
(assert (str.in_re sym2170 Alphabet))(assert (<= 1 (str.len sym1073 )))
(assert (<= 1 (str.len sym3327 )))
(assert (<= 1 (str.len sym209 )))
(assert (<= 1 (str.len sym1304 )))
(assert (<= 1 (str.len sym1731 )))
(assert (<= 1 (str.len sym2170 )))
(assert (<= 1 (str.len sym1528 )))
(assert (<= 1 (str.len sym3228 )))
(assert (<= 1 (str.len sym551 )))
(assert (<= 1 (str.len sym1946 )))
(assert (<= 1 (str.len sym2365 )))
(assert (<= 1 (str.len sym817 )))
(assert (<= 1 (str.len sym3006 )))
(assert (<= 1 (str.len sym2811 )))
(assert (<= 1 (str.len sym2587 )))

(assert (not (= (str.toLower (str.substr sym1073  0 1))"q" )))
(assert (not (= (str.toLower (str.substr sym3006  0 1))"k" )))
(assert (not (= (str.toLower (str.substr sym2811  0 1))"q" )))
(assert (not (= (str.toLower (str.substr sym1946  0 1))"q" )))
(assert (not (= "" sym1731 )))
(assert (not (= (str.toLower (str.substr sym3006  0 1))"p" )))
(assert (not (= "" sym1073 )))
(assert (not (= "" sym2365 )))
(assert (not (= (str.toLower (str.substr sym817  0 1))"p" )))
(assert (= (str.toLower (str.substr sym2587  0 1))"p" ))
(assert (not (= "" sym817 )))
(assert (not (= "" sym2811 )))
(assert (not (= (str.toLower (str.substr sym3228  0 1))"q" )))
(assert (= "y" "y" ))
(assert (not (= "" sym3327 )))
(assert (not (= "" (str.toLower (str.substr sym209  0 1)))))
(assert (= (str.toLower (str.substr sym209  0 1))"y" ))
(assert (not (= "" sym1304 )))
(assert (not (= (str.toLower (str.substr sym2365  0 1))"p" )))
(assert (not (= "" sym551 )))
(assert (not (= "" sym2587 )))
(assert (not (= (str.toLower (str.substr sym817  0 1))"q" )))
(assert (not (= "" sym3006 )))
(assert (not (= "" (str.toLower (str.substr sym3327  0 1)))))
(assert (not (= (str.toLower (str.substr sym2170  0 1))"p" )))
(assert (= (str.toLower (str.substr sym817  0 1))"k" ))
(assert (not (= "" "y" )))
(assert (= (str.toLower (str.substr sym2170  0 1))"k" ))
(assert (not (= (str.toLower (str.substr sym3327  0 1))"y" )))
(assert (not (= (str.toLower (str.substr sym2365  0 1))"k" )))
(assert (not (= (str.toLower (str.substr sym2587  0 1))"q" )))
(assert (= (str.toLower (str.substr sym1073  0 1))"g" ))
(assert (= (str.toLower (str.substr sym2811  0 1))"k" ))
(assert (not (= (str.toLower (str.substr sym1731  0 1))"q" )))
(assert (= (str.toLower (str.substr sym551  0 1))"p" ))
(assert (not (= (str.toLower (str.substr sym1073  0 1))"p" )))
(assert (not (= "" sym1528 )))
(assert (not (= (str.toLower (str.substr sym1731  0 1))"p" )))
(assert (= (str.toLower (str.substr sym2365  0 1))"g" ))
(assert (not (= (str.toLower (str.substr sym2170  0 1))"q" )))
(assert (not (= (str.toLower (str.substr sym1528  0 1))"p" )))
(assert (not (= (str.toLower (str.substr sym1073  0 1))"k" )))
(assert (not (= (str.toLower (str.substr sym2811  0 1))"p" )))
(assert (not (= "y" "n" )))
(assert (= (str.toLower (str.substr sym1946  0 1))"p" ))
(assert (not (= (str.toLower (str.substr sym1528  0 1))"q" )))
(assert (not (= (str.toLower (str.substr sym1304  0 1))"q" )))
(assert (not (= "" sym2170 )))
(assert (= "" sym161 ))
(assert (not (= "" sym1946 )))
(assert (= (str.toLower (str.substr sym1304  0 1))"p" ))
(assert (= (str.toLower (str.substr sym1528  0 1))"k" ))
(assert (= "" "" ))
(assert (not (= (str.toLower (str.substr sym551  0 1))"q" )))
(assert (not (= (str.toLower (str.substr sym1731  0 1))"k" )))
(assert (not (= "" sym209 )))
(assert (not (= "" "q" )))
(assert (= (str.toLower (str.substr sym3006  0 1))"g" ))
(assert (not (= "n" "y" )))
(assert (not (= "" sym3228 )))
(assert (not (= (str.toLower (str.substr sym3006  0 1))"q" )))
(assert (not (= "" "n" )))
(assert (not (= "" "y" )))
(assert (= (str.toLower (str.substr sym1731  0 1))"g" ))
(assert (= (str.toLower (str.substr sym3228  0 1))"p" ))
(assert (not (= (str.toLower (str.substr sym2365  0 1))"q" )))
(check-sat)
(get-model)
(exit)
